6

0   15   11   4   1   23
15   0   9   24   17   19
11   9   0   20   20   12
4   24   20   0   9   24
1   17   20   9   0   15
23   19   12   24   15   0

0   20   38   32   22   51
20   0   18   24   12   41
38   18   0   42   26   45
32   24   42   0   16   19
22   12   26   16   0   29
51   41   45   19   29   0